 200 48 
 40 21 99 22 61 6 4 96 40 100 13 76 
 84 51 95 53 4 65 35 77 70 35 78 49 
 74 78 96 81 7 46 98 28 55 72 23 37 
 54 16 4 88 9 49 84 95 27 23 52 62 
 
 43 
 1 2 3 5 6 7 9 10 11 12 13 14 
 15 16 17 18 19 20 21 22 23 24 25 26 
 27 28 29 31 32 33 34 35 37 38 39 40 
 42 43 44 45 46 47 48 
 7 
 3 4 8 19 24 25 34 
 15 
 1 2 4 5 6 8 12 16 17 28 30 37 
 44 46 48 
 22 
 1 2 4 6 8 9 10 15 16 18 22 23 
 24 25 26 31 36 37 38 40 47 48 
 48 
 1 2 3 4 5 6 7 8 9 10 11 12 
 13 14 15 16 17 18 19 20 21 22 23 24 
 25 26 27 28 29 30 31 32 33 34 35 36 
 37 38 39 40 41 42 43 44 45 46 47 48 
 2 
 1 25 
 43 
 1 2 3 4 6 7 8 9 10 11 12 13 
 15 16 17 18 19 21 22 23 24 25 26 27 
 29 30 31 32 33 34 35 36 38 39 40 41 
 42 43 44 45 46 47 48 
 43 
 2 3 4 6 7 9 10 11 12 13 14 15 
 16 17 18 19 20 21 22 23 24 25 26 27 
 29 30 31 32 33 34 35 36 37 38 39 40 
 41 42 43 45 46 47 48 
 29 
 1 3 4 5 7 8 9 13 15 16 18 20 
 22 25 26 27 28 30 31 32 34 35 36 37 
 38 43 44 45 48 
 18 
 1 2 4 7 8 19 20 23 26 28 29 32 
 33 35 37 39 43 48 
 15 
 5 6 8 10 11 12 18 22 23 28 33 34 
 37 45 46 
 38 
 1 2 3 4 5 7 8 9 10 11 12 13 
 17 18 19 22 26 27 28 29 30 31 33 34 
 35 36 37 38 39 40 41 42 43 44 45 46 
 47 48 
 5 
 18 21 22 28 34 
 34 
 1 2 4 5 8 9 11 14 15 16 19 20 
 24 26 27 28 29 30 31 32 33 34 35 36 
 38 39 40 41 42 43 44 45 46 47 
 48 
 1 2 3 4 5 6 7 8 9 10 11 12 
 13 14 15 16 17 18 19 20 21 22 23 24 
 25 26 27 28 29 30 31 32 33 34 35 36 
 37 38 39 40 41 42 43 44 45 46 47 48 
 41 
 2 3 4 5 7 8 9 10 11 12 13 14 
 15 16 18 20 21 23 24 25 26 27 28 29 
 30 31 32 33 34 35 36 37 38 39 40 41 
 43 44 45 47 48 
 29 
 2 3 4 7 8 9 15 16 17 19 21 22 
 24 25 27 28 29 31 32 33 35 36 37 39 
 40 42 43 47 48 
 8 
 3 6 8 20 21 27 30 31 
 24 
 3 5 13 15 17 18 21 23 26 28 29 30 
 31 32 33 34 36 37 38 39 41 44 46 48 
 20 
 5 9 13 14 16 18 20 21 22 24 25 26 
 27 33 34 35 38 46 47 48 
 36 
 1 2 3 6 7 9 10 12 14 15 16 17 
 18 19 20 21 23 25 26 27 28 29 30 32 
 33 34 35 36 37 38 40 42 43 44 46 48 
 21 
 1 2 5 11 13 14 18 22 23 25 27 29 
 30 32 38 39 42 44 46 47 48 
 22 
 2 4 6 14 20 21 22 25 26 27 29 31 
 32 35 37 38 39 40 41 43 47 48 
 4 
 29 37 40 44 
 42 
 1 2 3 4 5 7 8 9 10 11 12 13 
 14 15 16 17 18 19 21 22 24 25 26 28 
 29 30 31 32 33 34 35 37 38 39 40 41 
 43 44 45 46 47 48 
 41 
 1 2 3 4 5 6 8 9 10 11 12 13 
 14 15 16 17 19 20 22 23 24 25 26 27 
 28 29 32 33 34 35 37 38 40 41 42 43 
 44 45 46 47 48 
 13 
 6 9 11 13 15 21 23 27 29 31 36 45 
 48 
 26 
 1 2 6 8 9 13 14 15 17 18 20 23 
 24 26 27 29 30 31 32 35 36 40 43 45 
 47 48 
 9 
 5 11 16 17 20 23 26 29 34 
 5 
 13 15 16 31 45 
 43 
 1 2 3 5 6 7 9 10 11 12 13 14 
 15 16 17 18 19 20 21 22 23 24 25 26 
 27 28 30 31 33 34 35 36 37 38 40 41 
 42 43 44 45 46 47 48 
 16 
 2 4 5 7 10 11 13 17 24 25 27 34 
 35 38 40 44 
 46 
 1 2 3 4 5 6 7 8 9 10 11 12 
 13 14 15 16 17 18 19 20 21 22 23 24 
 25 26 28 29 30 31 32 33 34 35 36 37 
 38 39 40 41 42 43 44 45 46 48 
 10 
 1 14 21 22 30 41 42 43 44 46 
 15 
 10 12 15 16 17 18 19 24 25 27 28 32 
 33 37 43 
 17 
 1 7 10 12 15 16 20 22 25 30 34 35 
 36 37 38 40 44 
 9 
 11 13 19 25 27 29 40 41 44 
 16 
 2 4 5 7 9 12 19 20 22 27 32 36 
 40 44 46 48 
 12 
 5 7 10 14 16 17 21 25 36 39 44 47 
 35 
 1 2 3 4 5 7 8 10 11 13 14 15 
 16 18 20 22 23 27 28 29 32 33 34 35 
 36 37 38 39 40 41 43 44 45 46 48 
 45 
 1 2 3 4 5 6 7 8 9 10 11 12 
 13 15 16 17 18 19 20 22 23 24 25 26 
 27 28 29 30 31 32 33 34 35 36 37 38 
 39 40 41 42 43 44 46 47 48 
 44 
 1 2 3 4 5 6 7 8 9 11 12 13 
 14 15 16 17 18 19 20 21 22 23 24 25 
 26 27 29 30 31 32 33 34 36 37 38 40 
 41 42 43 44 45 46 47 48 
 13 
 3 9 10 16 20 21 25 28 31 39 41 43 
 46 
 44 
 1 2 3 4 5 7 8 9 10 11 12 13 
 14 15 16 17 18 19 20 22 23 24 25 27 
 28 29 30 32 33 34 35 36 37 38 39 40 
 41 42 43 44 45 46 47 48 
 45 
 1 2 3 5 6 7 8 9 10 11 12 13 
 14 15 16 18 19 20 21 22 23 24 25 26 
 27 28 29 30 31 32 33 34 35 36 37 38 
 39 40 41 43 44 45 46 47 48 
 47 
 1 2 3 4 5 6 7 9 10 11 12 13 
 14 15 16 17 18 19 20 21 22 23 24 25 
 26 27 28 29 30 31 32 33 34 35 36 37 
 38 39 40 41 42 43 44 45 46 47 48 
 21 
 1 2 3 8 12 15 16 17 18 19 21 22 
 24 25 26 32 38 39 41 45 48 
 8 
 2 3 9 22 25 27 32 48 
 9 
 9 17 24 26 29 39 42 43 48 
 9 
 1 4 5 20 22 24 33 43 46 
 43 
 1 2 3 4 5 7 8 10 11 13 14 15 
 16 17 18 19 20 21 22 23 24 25 26 27 
 28 29 30 31 32 33 35 36 37 38 39 40 
 41 42 44 45 46 47 48 
 17 
 2 3 6 7 9 16 17 18 20 25 32 36 
 37 39 44 45 47 
 45 
 1 2 3 4 5 6 7 9 10 11 12 13 
 15 17 18 19 20 21 22 23 24 25 26 27 
 28 29 30 31 32 33 34 35 36 37 38 39 
 40 41 42 43 44 45 46 47 48 
 48 
 1 2 3 4 5 6 7 8 9 10 11 12 
 13 14 15 16 17 18 19 20 21 22 23 24 
 25 26 27 28 29 30 31 32 33 34 35 36 
 37 38 39 40 41 42 43 44 45 46 47 48 
 21 
 1 2 4 5 8 12 13 15 16 17 19 22 
 23 26 27 29 32 35 45 46 48 
 4 
 10 35 36 43 
 38 
 1 2 3 4 6 7 8 9 10 11 12 13 
 17 18 19 20 21 22 24 25 26 28 29 31 
 32 33 34 35 36 39 40 41 42 43 45 46 
 47 48 
 12 
 1 7 11 18 20 27 34 36 38 39 44 47 
 20 
 1 3 11 14 15 16 18 20 21 26 28 29 
 31 32 33 34 35 37 40 41 
 41 
 1 3 5 6 7 8 9 10 11 12 13 14 
 15 16 17 18 19 20 21 22 23 25 26 27 
 28 29 30 31 32 33 35 36 37 39 40 41 
 42 43 44 47 48 
 10 
 1 7 10 14 18 21 23 24 33 35 
 43 
 2 3 4 5 6 8 9 10 11 12 13 14 
 15 16 17 18 19 21 22 23 24 25 26 27 
 28 29 31 32 34 35 36 37 38 39 40 41 
 42 43 44 45 46 47 48 
 9 
 8 22 23 26 28 31 35 39 42 
 16 
 5 6 12 16 18 19 22 26 30 32 33 34 
 40 42 45 46 
 39 
 1 2 3 4 5 7 8 9 10 11 12 13 
 16 18 19 20 22 24 25 26 27 28 29 30 
 31 32 33 34 36 37 38 40 41 43 44 45 
 46 47 48 
 35 
 2 4 5 6 7 9 10 12 13 15 16 17 
 18 21 22 23 24 25 27 28 29 31 32 33 
 34 35 36 38 39 41 43 45 46 47 48 
 4 
 5 15 34 35 
 21 
 2 4 5 6 8 9 13 14 15 18 19 20 
 31 36 37 39 40 41 43 44 45 
 17 
 1 3 5 11 12 19 20 22 27 31 32 35 
 38 39 41 44 48 
 2 
 25 37 
 26 
 2 4 5 6 7 9 10 11 15 16 19 22 
 24 25 26 27 28 30 32 34 36 38 40 41 
 46 48 
 24 
 2 3 4 5 6 10 11 16 18 21 22 23 
 25 27 31 33 34 35 39 41 43 44 45 46 
 35 
 1 2 3 7 8 9 11 12 15 19 20 21 
 22 23 24 25 26 27 28 29 30 31 32 33 
 34 35 36 37 39 40 41 43 44 45 47 
 21 
 3 11 12 13 16 20 22 23 24 30 33 35 
 37 38 39 40 42 43 44 47 48 
 10 
 3 5 17 23 25 31 35 38 39 47 
 38 
 1 2 3 5 7 9 10 11 12 13 14 15 
 17 18 19 20 21 23 25 28 30 31 32 33 
 34 35 36 37 38 40 41 42 43 44 45 46 
 47 48 
 14 
 5 9 14 15 16 21 22 23 33 34 35 37 
 44 46 
 12 
 2 8 9 11 17 24 28 29 31 35 41 42 
 22 
 1 3 4 7 10 14 15 17 18 19 20 22 
 24 29 34 37 38 40 41 42 45 48 
 48 
 1 2 3 4 5 6 7 8 9 10 11 12 
 13 14 15 16 17 18 19 20 21 22 23 24 
 25 26 27 28 29 30 31 32 33 34 35 36 
 37 38 39 40 41 42 43 44 45 46 47 48 
 10 
 4 8 19 22 23 25 26 31 35 36 
 14 
 3 7 8 11 12 14 15 19 26 29 32 35 
 43 45 
 20 
 10 12 14 17 18 19 23 24 27 28 30 31 
 35 38 40 41 44 46 47 48 
 22 
 1 5 6 7 10 12 14 15 16 18 20 21 
 23 29 35 36 39 40 42 43 44 46 
 12 
 4 8 21 23 30 35 37 38 41 43 44 46 
 9 
 2 8 18 22 29 33 35 38 43 
 3 
 3 9 25 
 21 
 1 3 5 6 13 14 15 18 20 24 25 28 
 29 30 31 34 41 42 45 47 48 
 13 
 1 2 4 6 10 14 16 17 28 30 33 34 
 46 
 32 
 4 5 6 8 9 10 11 12 13 14 15 16 
 17 18 19 21 23 28 29 30 31 32 34 35 
 36 37 39 41 42 44 47 48 
 13 
 1 4 10 12 14 15 17 21 24 30 33 40 
 41 
 6 
 3 20 22 23 38 45 
 45 
 1 2 3 4 5 6 7 8 9 10 11 12 
 13 14 15 17 18 19 20 21 22 23 24 25 
 26 27 28 29 30 31 32 33 35 36 38 39 
 40 41 42 43 44 45 46 47 48 
 16 
 3 5 12 22 24 25 27 28 32 33 34 39 
 40 42 47 48 
 36 
 1 2 3 5 6 7 8 9 11 12 14 16 
 17 18 19 20 21 22 23 24 25 26 27 28 
 29 30 32 33 34 35 37 41 43 45 46 47 
 9 
 1 2 6 22 24 31 36 37 43 
 6 
 7 15 22 44 45 47 
 31 
 1 5 6 7 10 11 12 13 14 15 16 18 
 20 21 23 26 27 28 30 33 34 35 36 37 
 38 39 40 42 43 45 46 
 16 
 3 7 8 12 13 15 22 24 28 29 30 35 
 40 46 47 48 
 17 
 7 9 15 16 21 22 23 27 28 29 31 34 
 37 44 45 46 48 
 34 
 1 2 3 4 5 6 7 8 10 11 12 13 
 14 17 20 21 22 23 26 27 28 29 30 31 
 32 33 35 36 37 40 45 46 47 48 
 35 
 1 2 3 4 5 7 8 12 13 14 16 17 
 18 19 20 21 22 23 25 28 30 32 33 34 
 35 37 38 40 41 42 43 44 45 46 47 
 16 
 3 5 7 11 15 23 24 25 30 32 33 35 
 38 39 40 48 
 44 
 1 2 3 4 5 6 7 8 9 10 11 12 
 14 15 16 17 18 19 20 21 23 24 25 26 
 27 28 29 30 31 32 33 34 35 37 38 39 
 40 41 42 43 45 46 47 48 
 37 
 1 3 4 5 7 8 9 10 11 13 14 15 
 16 17 18 20 21 22 23 24 25 26 28 29 
 31 32 33 35 37 38 41 42 43 44 45 46 
 48 
 29 
 1 2 3 4 6 8 10 11 13 14 15 18 
 19 20 21 23 24 25 26 27 29 32 34 36 
 38 39 40 42 47 
 29 
 1 4 5 7 8 10 11 12 13 15 16 21 
 22 23 24 25 27 28 29 30 32 33 34 35 
 36 40 43 45 47 
 14 
 1 4 7 8 10 12 16 18 22 33 34 38 
 45 46 
 42 
 3 4 5 6 7 8 9 10 11 12 14 15 
 17 18 19 20 21 22 23 25 26 27 28 29 
 30 31 32 33 34 35 36 37 38 39 40 41 
 43 44 45 46 47 48 
 28 
 2 3 5 6 7 9 10 12 13 14 17 23 
 24 26 28 31 33 35 36 37 40 41 42 43 
 44 46 47 48 
 37 
 1 2 4 5 6 7 8 9 10 11 13 15 
 16 18 20 22 23 24 25 26 28 29 30 32 
 35 36 37 38 39 40 41 42 43 44 46 47 
 48 
 30 
 1 2 3 4 7 8 10 11 16 17 19 22 
 23 25 26 27 28 29 30 31 34 35 37 38 
 40 41 42 44 45 47 
 47 
 1 2 3 4 5 6 7 9 10 11 12 13 
 14 15 16 17 18 19 20 21 22 23 24 25 
 26 27 28 29 30 31 32 33 34 35 36 37 
 38 39 40 41 42 43 44 45 46 47 48 
 9 
 2 6 13 22 26 32 40 46 48 
 48 
 1 2 3 4 5 6 7 8 9 10 11 12 
 13 14 15 16 17 18 19 20 21 22 23 24 
 25 26 27 28 29 30 31 32 33 34 35 36 
 37 38 39 40 41 42 43 44 45 46 47 48 
 43 
 2 3 4 5 6 7 8 10 11 12 13 14 
 15 17 18 19 20 21 22 23 24 25 26 27 
 28 29 30 32 33 34 35 36 37 38 39 40 
 42 43 44 45 46 47 48 
 31 
 3 5 6 7 8 11 12 14 16 17 18 19 
 21 23 24 26 27 28 29 30 32 35 37 38 
 40 42 43 44 46 47 48 
 32 
 2 4 5 6 7 9 10 11 12 13 14 16 
 17 18 19 21 23 24 25 27 28 29 31 35 
 36 38 39 41 43 44 45 47 
 17 
 1 5 6 9 10 11 12 14 17 24 25 26 
 27 34 36 43 46 
 30 
 1 3 4 5 7 10 13 14 16 17 18 19 
 21 22 25 26 27 28 29 30 32 34 35 37 
 38 41 43 44 46 47 
 30 
 2 3 5 8 9 11 12 13 14 17 18 19 
 20 21 23 26 27 28 29 30 31 32 33 37 
 38 39 42 44 45 46 
 30 
 1 3 4 6 8 9 10 12 13 14 17 18 
 20 22 24 25 26 28 29 31 32 33 34 35 
 36 37 43 45 47 48 
 7 
 2 13 17 21 43 45 48 
 15 
 4 6 7 11 16 22 24 29 31 32 33 36 
 40 46 47 
 8 
 1 3 6 9 14 24 30 38 
 47 
 1 2 3 4 5 6 7 8 9 10 11 12 
 13 14 15 16 17 18 19 20 21 22 23 24 
 25 26 27 28 29 30 31 32 33 34 35 36 
 38 39 40 41 42 43 44 45 46 47 48 
 31 
 1 4 6 9 10 13 14 16 17 18 19 20 
 23 24 25 26 27 28 29 31 32 33 35 36 
 37 39 40 43 44 45 46 
 46 
 1 2 3 4 5 6 7 8 9 10 11 12 
 13 14 15 16 17 18 19 20 21 22 23 24 
 25 26 27 28 29 30 31 32 33 34 35 36 
 37 38 40 42 43 44 45 46 47 48 
 8 
 3 6 8 10 23 27 28 46 
 40 
 1 2 3 6 7 8 9 10 12 13 14 16 
 19 20 21 22 23 24 25 26 27 28 30 31 
 32 33 34 36 37 38 39 40 41 42 43 44 
 45 46 47 48 
 31 
 1 2 3 5 6 8 9 10 11 12 14 16 
 17 18 20 21 23 25 26 27 28 29 30 32 
 33 36 39 40 42 46 48 
 13 
 5 6 15 17 21 23 27 31 35 36 46 47 
 48 
 26 
 2 4 5 6 7 11 13 14 15 16 17 18 
 20 23 24 26 27 29 35 37 38 39 41 42 
 47 48 
 43 
 1 2 3 4 5 6 7 8 9 10 12 13 
 14 15 17 18 19 20 21 23 24 25 26 27 
 28 29 31 32 33 34 35 36 37 38 39 40 
 41 42 43 44 45 47 48 
 8 
 2 3 4 8 20 26 35 44 
 34 
 1 2 3 5 6 8 9 11 12 13 14 15 
 16 17 22 23 25 26 27 28 29 30 33 34 
 35 36 39 40 42 43 44 45 46 48 
 3 
 7 9 15 
 16 
 7 8 11 12 18 22 24 31 33 34 35 36 
 41 43 45 48 
 20 
 1 2 3 9 13 14 17 18 19 22 25 28 
 30 35 36 37 38 40 43 47 
 22 
 1 2 7 9 11 13 16 17 19 21 22 27 
 28 29 30 33 34 36 37 39 40 48 
 32 
 1 3 4 5 7 9 11 15 16 17 18 19 
 23 25 26 27 28 29 31 32 34 35 36 37 
 38 39 40 41 42 43 45 48 
 32 
 1 2 4 5 6 8 11 13 14 16 18 19 
 20 22 24 27 28 29 30 31 34 36 37 39 
 41 42 43 44 45 46 47 48 
 31 
 1 4 6 8 9 11 13 15 18 19 21 22 
 23 24 25 29 30 31 32 33 34 35 36 39 
 40 41 44 45 46 47 48 
 40 
 1 2 3 5 6 7 8 10 11 12 13 14 
 16 17 19 20 21 22 24 25 26 27 28 29 
 31 33 34 35 36 38 39 40 41 42 43 44 
 45 46 47 48 
 12 
 8 9 12 17 18 23 26 28 34 36 38 43 
 22 
 1 2 5 8 9 10 11 13 14 15 16 17 
 18 20 23 27 28 33 35 36 42 48 
 17 
 1 3 8 13 14 16 21 22 24 25 29 36 
 38 39 42 43 47 
 27 
 1 3 4 5 6 7 9 10 12 15 17 18 
 19 25 29 30 32 33 34 35 36 38 41 42 
 43 46 47 
 12 
 7 10 15 21 22 25 27 32 35 39 46 47 
 28 
 3 6 7 8 11 13 15 16 18 19 20 22 
 23 25 28 29 32 33 35 36 38 39 41 42 
 43 44 45 46 
 26 
 2 6 7 8 10 11 12 13 14 15 17 18 
 19 21 22 23 26 28 31 32 34 35 36 39 
 44 47 
 13 
 4 5 8 14 17 19 22 24 29 30 37 44 
 46 
 3 
 4 25 38 
 40 
 1 3 4 5 6 7 8 9 10 11 12 13 
 14 15 16 18 19 20 21 22 23 25 26 27 
 28 29 30 32 33 34 35 36 38 39 40 41 
 42 43 44 46 
 13 
 4 8 10 11 15 20 21 24 27 35 37 40 
 42 
 15 
 3 5 7 8 12 26 27 28 31 32 34 39 
 42 43 47 
 22 
 1 3 9 10 13 14 15 17 20 22 23 24 
 27 28 30 34 35 38 39 42 43 45 
 19 
 2 3 5 6 9 13 16 17 22 23 24 26 
 31 34 37 41 44 45 48 
 44 
 1 2 3 4 5 6 7 8 9 10 11 12 
 13 14 16 17 18 19 20 21 22 23 24 25 
 26 27 28 29 30 31 32 33 34 35 36 37 
 38 40 42 43 45 46 47 48 
 6 
 1 4 16 35 40 46 
 48 
 1 2 3 4 5 6 7 8 9 10 11 12 
 13 14 15 16 17 18 19 20 21 22 23 24 
 25 26 27 28 29 30 31 32 33 34 35 36 
 37 38 39 40 41 42 43 44 45 46 47 48 
 8 
 13 14 22 28 30 31 34 36 
 8 
 5 8 20 25 26 36 41 42 
 7 
 7 13 17 27 33 39 44 
 43 
 1 2 3 4 5 6 8 10 11 12 13 14 
 15 16 17 18 19 20 22 24 25 26 27 28 
 29 31 32 33 34 35 36 37 38 39 40 41 
 42 43 44 45 46 47 48 
 37 
 1 3 5 6 7 9 10 11 13 14 16 17 
 18 19 20 21 23 24 25 26 27 28 30 31 
 32 34 35 36 37 38 40 41 42 44 45 46 
 48 
 12 
 11 19 20 25 28 32 34 40 43 44 45 47 
 27 
 6 7 8 9 11 13 15 16 18 19 22 24 
 28 29 30 31 32 33 36 37 39 41 43 44 
 45 47 48 
 16 
 2 3 4 7 9 11 13 18 19 21 30 32 
 34 36 38 48 
 42 
 1 2 3 4 6 8 9 10 11 12 13 14 
 15 16 17 18 20 21 22 23 25 26 28 29 
 30 31 32 33 34 35 36 37 38 39 40 41 
 42 43 44 45 47 48 
 36 
 1 2 3 4 5 6 7 8 9 12 14 15 
 16 17 19 20 23 24 25 27 28 30 31 32 
 33 34 35 36 38 39 40 41 42 44 46 47 
 37 
 1 2 3 4 5 6 7 8 9 10 11 12 
 13 17 19 20 21 22 24 25 26 29 30 31 
 32 34 35 37 38 40 41 42 43 44 45 47 
 48 
 17 
 2 3 4 8 10 15 16 18 19 25 27 30 
 32 33 38 45 48 
 4 
 2 4 10 37 
 42 
 1 3 4 5 6 7 8 9 11 12 13 15 
 16 17 18 19 20 21 22 23 24 25 26 27 
 30 31 33 34 35 36 37 38 39 40 41 42 
 43 44 45 46 47 48 
 18 
 3 6 11 13 15 20 21 22 28 31 35 36 
 37 39 41 42 44 48 
 5 
 4 7 21 30 38 
 42 
 1 2 3 5 6 7 8 9 10 11 12 13 
 14 15 16 17 18 19 20 21 22 23 24 25 
 26 28 29 30 31 32 34 35 37 38 39 40 
 41 42 44 45 46 47 
 32 
 1 2 3 4 6 7 8 9 12 14 15 16 
 18 20 21 22 23 25 27 29 30 34 35 36 
 37 38 39 41 44 45 47 48 
 22 
 2 7 8 9 10 11 12 13 16 17 19 20 
 27 28 30 34 36 41 44 45 47 48 
 20 
 2 6 9 11 13 14 16 17 20 21 23 24 
 27 32 34 39 41 42 43 44 
 41 
 1 3 4 5 6 7 8 9 10 11 12 13 
 14 16 17 18 19 20 22 24 25 27 29 30 
 31 32 33 34 35 37 38 39 40 41 42 43 
 44 45 46 47 48 
 6 
 2 13 27 28 41 42 
 30 
 5 6 7 8 9 11 12 13 14 15 17 23 
 24 25 26 27 28 29 30 31 33 34 36 38 
 39 40 41 42 44 46 
 16 
 1 2 6 10 11 15 24 25 27 29 32 35 
 37 39 41 48 
 8 
 3 20 23 24 29 32 33 37 
 48 
 1 2 3 4 5 6 7 8 9 10 11 12 
 13 14 15 16 17 18 19 20 21 22 23 24 
 25 26 27 28 29 30 31 32 33 34 35 36 
 37 38 39 40 41 42 43 44 45 46 47 48 
 26 
 1 2 4 5 7 8 9 13 19 20 21 22 
 24 26 27 28 29 31 35 36 38 39 40 41 
 42 44 
 47 
 1 2 3 4 5 6 7 8 9 10 11 12 
 13 14 15 16 17 18 19 20 21 22 23 24 
 25 26 27 28 29 30 31 32 33 35 36 37 
 38 39 40 41 42 43 44 45 46 47 48 
 10 
 11 13 14 26 28 30 33 36 43 44 
 11 
 2 5 11 20 27 28 30 31 35 37 47 
 28 
 1 5 6 7 8 9 10 14 16 17 19 21 
 23 24 28 29 30 32 33 34 36 37 38 39 
 40 42 45 47 
 41 
 1 2 5 7 8 10 11 12 13 14 15 16 
 17 18 19 20 21 22 23 24 25 26 28 29 
 30 31 32 33 34 35 36 37 38 39 40 42 
 43 44 45 46 48 
 48 
 1 2 3 4 5 6 7 8 9 10 11 12 
 13 14 15 16 17 18 19 20 21 22 23 24 
 25 26 27 28 29 30 31 32 33 34 35 36 
 37 38 39 40 41 42 43 44 45 46 47 48 
 37 
 1 3 5 7 8 9 11 12 13 14 15 16 
 17 18 19 20 21 23 24 26 28 29 30 32 
 33 34 35 37 38 39 42 43 44 45 46 47 
 48 
 26 
 1 3 4 8 9 13 14 15 18 19 21 24 
 27 29 30 31 32 34 35 36 37 38 41 42 
 45 47 
 3 
 4 10 17 
 48 
 1 2 3 4 5 6 7 8 9 10 11 12 
 13 14 15 16 17 18 19 20 21 22 23 24 
 25 26 27 28 29 30 31 32 33 34 35 36 
 37 38 39 40 41 42 43 44 45 46 47 48 
 17 
 1 3 6 12 15 17 19 21 22 26 27 30 
 31 32 41 43 45 
 33 
 2 3 4 5 7 9 10 12 13 14 15 18 
 19 20 22 24 25 27 28 29 30 31 32 33 
 34 36 37 38 41 42 44 47 48 
 